NAME : TW_45_seed_None_id_0
TYPE : CVRPTW
DIMENSION : 11
EDGE_WEIGHT_TYPE : EUC_2D
CAPACITY : 25
SERVICE_TIME : 100
LATE_COEFF : 0
NODE_COORD_SECTION
1	554	557
2	166	798
3	706	94
4	5	802
5	174	226
6	699	227
7	216	933
8	995	932
9	632	872
10	78	926
11	378	562
DEMAND_SECTION
1	0
2	9
3	6
4	9
5	4
6	9
7	5
8	3
9	8
10	8
11	3
TIME_WINDOW_SECTION
1	0	10000
2	0	10000
3	0	10000
4	0	10000
5	0	10000
6	0	10000
7	0	10000
8	0	10000
9	0	10000
10	0	10000
11	0	10000
DEPOT_SECTION
1
-1
EOF
